(declare-const v0 Bool)
(declare-const v1 Bool)
(declare-const v2 Bool)
(declare-const v3 Bool)
(declare-const v4 Bool)
(assert (edge true true))
(assert (edge (or (not v0) (not v2)) (not v2)))
(assert (edge (or v2 (not v0)) (not v1)))
(assert (edge v0 true))
(assert (edge (not v2) (or (not v1) (not v0))))
(assert (not (edge true (not v4))))